21
19
19 16 3 10 6 0 13 1 7 11 20
3 16 5 1 2 6 17 18 19 11 7 0 10 8 14 13 12 15 4
18 4
13 0 12 9 5 10 20 15 17 8 11 2 16 19 4 3 18 14 1 7 6
16 17 7 14 8 3 9 4 10 0 20 15 12 1 11
10 6 19 17 8 11 15 0 20 14 2 5 3 1
5 0 20 6 16 2 11 1 17 8 13 4 14 7 19 9 10
4 10 16 0 2 7 6 1 12 18 15 3 5 8 13 11 19 20
17 12 10 20 4 2 11 18 6 3 16 0 9
10 0 13 1 5 19 15 20 16 12 11 6 14 3 8 18 4 7 2
9 4 14 11 10 19 8 6 18 16 12 15 1 2 7
14 2 13
18 17 16 15 14 4 19 7 6 5 9 12
7 19 15 8 4 6 1 12 5 10 9 0 20 3 18 11 14 16
3 5 20 6 16 12 8 15 10
12 9 2 20 7 19 18
16 9 15 4 14 0
12 4 9 13 16 18 14 3 15 19 10 0 7
12 7 15 19 17 18 9 1 6
